c description: Random 3-CNF over 20 variables and 85 clauses
c generator: CNFgen (0.9.2)
c copyright: (C) 2012-2022 Massimo Lauria <massimo.lauria@uniroma1.it>
c url: https://massimolauria.net/cnfgen
c command line: cnfgen --output CNF_4.28/20_bit_85_597.cnf randkcnf 3 20 85
c
p cnf 20 85
1 9 11 0
-5 8 -10 0
-8 -15 -20 0
-3 -16 -18 0
-3 -9 -12 0
2 -5 -13 0
-2 -9 -18 0
5 -9 20 0
1 -13 -15 0
-8 -10 -17 0
-13 15 17 0
2 13 14 0
10 16 -17 0
-3 6 20 0
9 -10 -17 0
-2 -4 -6 0
13 15 19 0
-3 -8 13 0
1 -2 -3 0
-8 9 -14 0
9 -14 17 0
-2 3 7 0
2 15 18 0
-3 6 13 0
8 14 -19 0
-7 -9 -12 0
-1 12 15 0
1 5 -15 0
-3 5 -10 0
-2 6 -7 0
-7 18 -20 0
5 6 -15 0
2 -6 -9 0
-2 14 18 0
2 8 11 0
-3 4 -15 0
-7 8 10 0
18 19 -20 0
3 -5 -13 0
1 17 -19 0
11 19 20 0
8 -9 12 0
-5 14 19 0
-1 -8 14 0
-8 -13 19 0
-8 13 15 0
-2 -3 -7 0
-6 10 11 0
-7 -11 -16 0
3 8 10 0
-2 -3 11 0
-8 -9 -15 0
-7 -11 -15 0
2 10 -17 0
10 -17 -19 0
-4 -12 -19 0
-2 -13 -19 0
6 -7 -19 0
-3 5 16 0
6 -16 -17 0
14 15 -16 0
-6 -15 -16 0
-2 5 -10 0
-2 -7 -17 0
1 -2 -6 0
-4 -12 16 0
-5 8 18 0
3 5 -18 0
5 -9 10 0
8 13 18 0
-1 -19 -20 0
7 -16 -20 0
3 10 14 0
1 -18 -19 0
-5 -9 -15 0
3 -7 -12 0
-11 18 20 0
6 9 14 0
-3 5 -16 0
1 -8 -14 0
11 16 -20 0
-1 15 20 0
8 10 -14 0
-2 -4 -18 0
7 -15 19 0
